\ENCODING=ISO-8859-1
\Problem name: ilog.cplex

Maximize
 obj: 738 x(0)#0 + 584 x(1)#1 + 424 x(2)#2 + 572 x(3)#3 + 792 x(4)#4
      + 478 x(5)#5 + 730 x(6)#6 + 891 x(7)#7 + 656 x(8)#8 + 772 x(9)#9
      + 531 x(10)#10 + 769 x(11)#11 + 839 x(12)#12 + 948 x(13)#13
      + 561 x(14)#14 + 796 x(15)#15 + 783 x(16)#16 + 672 x(17)#17
      + 775 x(18)#18 + 657 x(19)#19 + 683 x(20)#20 + 971 x(21)#21
      + 1049 x(22)#22 + 547 x(23)#23 + 684 x(24)#24 + 734 x(25)#25
      + 769 x(26)#26 + 817 x(27)#27 + 802 x(28)#28 + 851 x(29)#29
      + 1074 x(30)#30 + 633 x(31)#31 + 822 x(32)#32 + 434 x(33)#33
      + 1057 x(34)#34 + 611 x(35)#35 + 800 x(36)#36 + 752 x(37)#37
      + 792 x(38)#38 + 748 x(39)#39 + 981 x(40)#40 + 571 x(41)#41
      + 539 x(42)#42 + 626 x(43)#43 + 634 x(44)#44 + 492 x(45)#45
      + 974 x(46)#46 + 798 x(47)#47 + 762 x(48)#48 + 539 x(49)#49
      + 831 x(50)#50 + 757 x(51)#51 + 792 x(52)#52 + 980 x(53)#53
      + 676 x(54)#54 + 414 x(55)#55 + 872 x(56)#56 + 683 x(57)#57
      + 585 x(58)#58 + 661 x(59)#59 + 374 x(60)#60 + 614 x(61)#61
      + 523 x(62)#62 + 824 x(63)#63 + 915 x(64)#64 + 583 x(65)#65
      + 745 x(66)#66 + 585 x(67)#67 + 721 x(68)#68 + 937 x(69)#69
      + 1069 x(70)#70 + 683 x(71)#71 + 739 x(72)#72 + 933 x(73)#73
      + 770 x(74)#74 + 659 x(75)#75 + 697 x(76)#76 + 607 x(77)#77
      + 975 x(78)#78 + 475 x(79)#79 + 680 x(80)#80 + 591 x(81)#81
      + 811 x(82)#82 + 841 x(83)#83 + 759 x(84)#84 + 715 x(85)#85
      + 867 x(86)#86 + 851 x(87)#87 + 697 x(88)#88 + 730 x(89)#89
      + 519 x(90)#90 + 689 x(91)#91 + 884 x(92)#92 + 847 x(93)#93
      + 884 x(94)#94 + 595 x(95)#95 + 640 x(96)#96 + 1016 x(97)#97
      + 1090 x(98)#98 + 797 x(99)#99 + 709 x(100)#100 + 543 x(101)#101
      + 660 x(102)#102 + 577 x(103)#103 + 829 x(104)#104 + 923 x(105)#105
      + 646 x(106)#106 + 1143 x(107)#107 + 711 x(108)#108 + 942 x(109)#109
      + 501 x(110)#110 + 621 x(111)#111 + 902 x(112)#112 + 681 x(113)#113
      + 447 x(114)#114 + 812 x(115)#115 + 820 x(116)#116 + 545 x(117)#117
      + 833 x(118)#118 + 909 x(119)#119 + 657 x(120)#120 + 1020 x(121)#121
      + 583 x(122)#122 + 493 x(123)#123 + 610 x(124)#124 + 385 x(125)#125
      + 580 x(126)#126 + 911 x(127)#127 + 622 x(128)#128 + 1140 x(129)#129
      + 373 x(130)#130 + 860 x(131)#131 + 735 x(132)#132 + 736 x(133)#133
      + 848 x(134)#134 + 998 x(135)#135 + 598 x(136)#136 + 1198 x(137)#137
      + 850 x(138)#138 + 710 x(139)#139 + 1087 x(140)#140 + 814 x(141)#141
      + 695 x(142)#142 + 806 x(143)#143 + 801 x(144)#144 + 416 x(145)#145
      + 513 x(146)#146 + 719 x(147)#147 + 965 x(148)#148 + 813 x(149)#149
      + 930 x(150)#150 + 830 x(151)#151 + 406 x(152)#152 + 804 x(153)#153
      + 590 x(154)#154 + 572 x(155)#155 + 828 x(156)#156 + 1287 x(157)#157
      + 676 x(158)#158 + 1116 x(159)#159 + 632 x(160)#160 + 744 x(161)#161
      + 510 x(162)#162 + 1172 x(163)#163 + 488 x(164)#164 + 505 x(165)#165
      + 885 x(166)#166 + 784 x(167)#167 + 386 x(168)#168 + 823 x(169)#169
      + 1024 x(170)#170 + 627 x(171)#171 + 1066 x(172)#172 + 980 x(173)#173
      + 875 x(174)#174 + 1005 x(175)#175 + 827 x(176)#176 + 597 x(177)#177
      + 821 x(178)#178 + 829 x(179)#179 + 451 x(180)#180 + 546 x(181)#181
      + 696 x(182)#182 + 405 x(183)#183 + 632 x(184)#184 + 849 x(185)#185
      + 653 x(186)#186 + 594 x(187)#187 + 1077 x(188)#188 + 1090 x(189)#189
      + 748 x(190)#190 + 477 x(191)#191 + 485 x(192)#192 + 838 x(193)#193
      + 953 x(194)#194 + 565 x(195)#195 + 677 x(196)#196 + 609 x(197)#197
      + 579 x(198)#198 + 543 x(199)#199 + 598 x(200)#200 + 523 x(201)#201
      + 877 x(202)#202 + 500 x(203)#203 + 603 x(204)#204 + 892 x(205)#205
      + 848 x(206)#206 + 425 x(207)#207 + 528 x(208)#208 + 975 x(209)#209
      + 719 x(210)#210 + 797 x(211)#211 + 744 x(212)#212 + 797 x(213)#213
      + 1003 x(214)#214 + 955 x(215)#215 + 882 x(216)#216 + 689 x(217)#217
      + 339 x(218)#218 + 598 x(219)#219 + 556 x(220)#220 + 463 x(221)#221
      + 715 x(222)#222 + 885 x(223)#223 + 814 x(224)#224 + 817 x(225)#225
      + 352 x(226)#226 + 672 x(227)#227 + 931 x(228)#228 + 678 x(229)#229
      + 856 x(230)#230 + 731 x(231)#231 + 873 x(232)#232 + 844 x(233)#233
      + 919 x(234)#234 + 967 x(235)#235 + 820 x(236)#236 + 333 x(237)#237
      + 744 x(238)#238 + 1176 x(239)#239 + 391 x(240)#240 + 972 x(241)#241
      + 405 x(242)#242 + 548 x(243)#243 + 688 x(244)#244 + 849 x(245)#245
      + 1088 x(246)#246 + 481 x(247)#247 + 524 x(248)#248 + 629 x(249)#249
Subject To
 c1: 585 x(0)#0 + 358 x(1)#1 + 619 x(2)#2 + 277 x(3)#3 + 553 x(4)#4
     + 179 x(5)#5 + 297 x(6)#6 + 295 x(7)#7 + 615 x(8)#8 + 303 x(9)#9
     + 115 x(10)#10 + 250 x(11)#11 + 538 x(12)#12 + 270 x(13)#13 + 442 x(14)#14
     + 283 x(15)#15 + 673 x(16)#16 + 577 x(17)#17 + 177 x(18)#18 + 167 x(19)#19
     + 265 x(20)#20 + 349 x(21)#21 + 908 x(22)#22 + 693 x(23)#23 + 93 x(24)#24
     + 144 x(25)#25 + 704 x(26)#26 + 976 x(27)#27 + 976 x(28)#28 + 55 x(29)#29
     + 987 x(30)#30 + 329 x(31)#31 + 524 x(32)#32 + 874 x(33)#33 + 642 x(34)#34
     + 390 x(35)#35 + 48 x(36)#36 + 138 x(37)#37 + 269 x(38)#38 + 556 x(39)#39
     + 251 x(40)#40 + 423 x(41)#41 + 667 x(42)#42 + 150 x(43)#43 + 299 x(44)#44
     + 532 x(45)#45 + 228 x(46)#46 + 67 x(47)#47 + 732 x(48)#48 + 199 x(49)#49
     + 306 x(50)#50 + 281 x(51)#51 + 58 x(52)#52 + 489 x(53)#53 + 575 x(54)#54
     + 75 x(55)#55 + 796 x(56)#56 + 202 x(57)#57 + 45 x(58)#58 + 91 x(59)#59
     + 118 x(60)#60 + 306 x(61)#61 + 968 x(62)#62 + 48 x(63)#63 + 685 x(64)#64
     + 480 x(65)#65 + 644 x(66)#66 + 774 x(67)#67 + 312 x(68)#68 + 490 x(69)#69
     + 317 x(70)#70 + 481 x(71)#71 + 292 x(72)#72 + 704 x(73)#73 + 282 x(74)#74
     + 983 x(75)#75 + 972 x(76)#76 + 225 x(77)#77 + 609 x(78)#78 + 200 x(79)#79
     + 82 x(80)#80 + 899 x(81)#81 + 65 x(82)#82 + 470 x(83)#83 + 911 x(84)#84
     + 884 x(85)#85 + 106 x(86)#86 + 412 x(87)#87 + 836 x(88)#88 + 361 x(89)#89
     + 133 x(90)#90 + 8 x(91)#91 + 471 x(92)#92 + 369 x(93)#93 + 587 x(94)#94
     + 425 x(95)#95 + 685 x(96)#96 + 960 x(97)#97 + 974 x(98)#98 + 71 x(99)#99
     + 930 x(100)#100 + 132 x(101)#101 + 658 x(102)#102 + 356 x(103)#103
     + 888 x(104)#104 + 874 x(105)#105 + 953 x(106)#106 + 790 x(107)#107
     + 963 x(108)#108 + 327 x(109)#109 + 121 x(110)#110 + 42 x(111)#111
     + 913 x(112)#112 + 157 x(113)#113 + 54 x(114)#114 + 752 x(115)#115
     + 98 x(116)#116 + 395 x(117)#117 + 310 x(118)#118 + 248 x(119)#119
     + 788 x(120)#120 + 123 x(121)#121 + 289 x(122)#122 + 528 x(123)#123
     + 211 x(124)#124 + 34 x(125)#125 + 661 x(126)#126 + 922 x(127)#127
     + 58 x(128)#128 + 418 x(129)#129 + 19 x(130)#130 + 439 x(131)#131
     + 92 x(132)#132 + 128 x(133)#133 + 851 x(134)#134 + 447 x(135)#135
     + 577 x(136)#136 + 908 x(137)#137 + 864 x(138)#138 + 435 x(139)#139
     + 986 x(140)#140 + 979 x(141)#141 + 19 x(142)#142 + 161 x(143)#143
     + 107 x(144)#144 + 702 x(145)#145 + 904 x(146)#146 + 269 x(147)#147
     + 659 x(148)#148 + 56 x(149)#149 + 571 x(150)#150 + 567 x(151)#151
     + 452 x(152)#152 + 11 x(153)#153 + 865 x(154)#154 + 577 x(155)#155
     + 818 x(156)#156 + 800 x(157)#157 + 582 x(158)#158 + 980 x(159)#159
     + 262 x(160)#160 + 976 x(161)#161 + 121 x(162)#162 + 936 x(163)#163
     + 528 x(164)#164 + 477 x(165)#165 + 409 x(166)#166 + 456 x(167)#167
     + 351 x(168)#168 + 639 x(169)#169 + 230 x(170)#170 + 143 x(171)#171
     + 824 x(172)#172 + 495 x(173)#173 + 136 x(174)#174 + 636 x(175)#175
     + 999 x(176)#176 + 46 x(177)#177 + 977 x(178)#178 + 222 x(179)#179
     + 776 x(180)#180 + 299 x(181)#181 + 689 x(182)#182 + 561 x(183)#183
     + 12 x(184)#184 + 326 x(185)#185 + 708 x(186)#186 + 212 x(187)#187
     + 149 x(188)#188 + 792 x(189)#189 + 389 x(190)#190 + 552 x(191)#191
     + 512 x(192)#192 + 303 x(193)#193 + 193 x(194)#194 + 208 x(195)#195
     + 37 x(196)#196 + 579 x(197)#197 + 188 x(198)#198 + 832 x(199)#199
     + 192 x(200)#200 + 377 x(201)#201 + 301 x(202)#202 + 264 x(203)#203
     + 333 x(204)#204 + 586 x(205)#205 + 720 x(206)#206 + 757 x(207)#207
     + 613 x(208)#208 + 19 x(209)#209 + 430 x(210)#210 + 172 x(211)#211
     + 635 x(212)#212 + 491 x(213)#213 + 343 x(214)#214 + 165 x(215)#215
     + 181 x(216)#216 + 927 x(217)#217 + 931 x(218)#218 + 545 x(219)#219
     + 58 x(220)#220 + 76 x(221)#221 + 3 x(222)#222 + 28 x(223)#223
     + 408 x(224)#224 + 89 x(225)#225 + 107 x(226)#226 + 264 x(227)#227
     + 259 x(228)#228 + 467 x(229)#229 + 924 x(230)#230 + 767 x(231)#231
     + 701 x(232)#232 + 989 x(233)#233 + 50 x(234)#234 + 975 x(235)#235
     + 441 x(236)#236 + 901 x(237)#237 + 130 x(238)#238 + 787 x(239)#239
     + 429 x(240)#240 + 703 x(241)#241 + 154 x(242)#242 + 341 x(243)#243
     + 794 x(244)#244 + 632 x(245)#245 + 94 x(246)#246 + 61 x(247)#247
     + 53 x(248)#248 + 219 x(249)#249 <= 84332
 c2: 374 x(0)#0 + 48 x(1)#1 + 547 x(2)#2 + 116 x(3)#3 + 528 x(4)#4 + 9 x(5)#5
     + 543 x(6)#6 + 877 x(7)#7 + 766 x(8)#8 + 704 x(9)#9 + 371 x(10)#10
     + 412 x(11)#11 + 232 x(12)#12 + 893 x(13)#13 + 239 x(14)#14 + 657 x(15)#15
     + 488 x(16)#16 + 43 x(17)#17 + 148 x(18)#18 + 488 x(19)#19 + 143 x(20)#20
     + 197 x(21)#21 + 616 x(22)#22 + 498 x(23)#23 + 531 x(24)#24 + 706 x(25)#25
     + 119 x(26)#26 + 427 x(27)#27 + 381 x(28)#28 + 136 x(29)#29 + 950 x(30)#30
     + 860 x(31)#31 + 444 x(32)#32 + 321 x(33)#33 + 615 x(34)#34 + 775 x(35)#35
     + 108 x(36)#36 + 143 x(37)#37 + 427 x(38)#38 + 156 x(39)#39 + 339 x(40)#40
     + 721 x(41)#41 + 155 x(42)#42 + 14 x(43)#43 + 377 x(44)#44 + 123 x(45)#45
     + 853 x(46)#46 + 813 x(47)#47 + 581 x(48)#48 + 366 x(49)#49 + 527 x(50)#50
     + 793 x(51)#51 + 879 x(52)#52 + 973 x(53)#53 + 796 x(54)#54 + 819 x(55)#55
     + 978 x(56)#56 + 443 x(57)#57 + 9 x(58)#58 + 980 x(59)#59 + 294 x(60)#60
     + 21 x(61)#61 + 879 x(62)#62 + 593 x(63)#63 + 510 x(64)#64 + 555 x(65)#65
     + 870 x(66)#66 + 621 x(67)#67 + 838 x(68)#68 + 982 x(69)#69 + 262 x(70)#70
     + 502 x(71)#71 + 954 x(72)#72 + 633 x(73)#73 + 701 x(74)#74 + 114 x(75)#75
     + 502 x(76)#76 + 39 x(77)#77 + 511 x(78)#78 + 977 x(79)#79 + 866 x(80)#80
     + 431 x(81)#81 + 185 x(82)#82 + 970 x(83)#83 + 338 x(84)#84 + 73 x(85)#85
     + 747 x(86)#86 + 403 x(87)#87 + 174 x(88)#88 + 248 x(89)#89 + 473 x(90)#90
     + 25 x(91)#91 + 262 x(92)#92 + 790 x(93)#93 + 536 x(94)#94 + 411 x(95)#95
     + 436 x(96)#96 + 536 x(97)#97 + 225 x(98)#98 + 855 x(99)#99
     + 695 x(100)#100 + 358 x(101)#101 + 471 x(102)#102 + 809 x(103)#103
     + 74 x(104)#104 + 585 x(105)#105 + 168 x(106)#106 + 648 x(107)#107
     + 401 x(108)#108 + 969 x(109)#109 + 869 x(110)#110 + 150 x(111)#111
     + 606 x(112)#112 + 318 x(113)#113 + 106 x(114)#114 + 35 x(115)#115
     + 703 x(116)#116 + 899 x(117)#117 + 772 x(118)#118 + 769 x(119)#119
     + 297 x(120)#120 + 713 x(121)#121 + 589 x(122)#122 + 773 x(123)#123
     + 904 x(124)#124 + 25 x(125)#125 + 73 x(126)#126 + 626 x(127)#127
     + 653 x(128)#128 + 871 x(129)#129 + 198 x(130)#130 + 845 x(131)#131
     + 998 x(132)#132 + 775 x(133)#133 + 398 x(134)#134 + 455 x(135)#135
     + 356 x(136)#136 + 848 x(137)#137 + 20 x(138)#138 + 791 x(139)#139
     + 440 x(140)#140 + 755 x(141)#141 + 576 x(142)#142 + 652 x(143)#143
     + 331 x(144)#144 + 235 x(145)#145 + 578 x(146)#146 + 707 x(147)#147
     + 735 x(148)#148 + 593 x(149)#149 + 792 x(150)#150 + 685 x(151)#151
     + 17 x(152)#152 + 790 x(153)#153 + 743 x(154)#154 + 293 x(155)#155
     + 178 x(156)#156 + 519 x(157)#157 + 563 x(158)#158 + 564 x(159)#159
     + 554 x(160)#160 + 600 x(161)#161 + 79 x(162)#162 + 893 x(163)#163
     + 484 x(164)#164 + 17 x(165)#165 + 843 x(166)#166 + 904 x(167)#167
     + 720 x(168)#168 + 288 x(169)#169 + 561 x(170)#170 + 47 x(171)#171
     + 707 x(172)#172 + 140 x(173)#173 + 430 x(174)#174 + 354 x(175)#175
     + 295 x(176)#176 + 213 x(177)#177 + 657 x(178)#178 + 106 x(179)#179
     + 610 x(180)#180 + 44 x(181)#181 + 949 x(182)#182 + 240 x(183)#183
     + 38 x(184)#184 + 487 x(185)#185 + 390 x(186)#186 + 595 x(187)#187
     + 925 x(188)#188 + 809 x(189)#189 + 69 x(190)#190 + 108 x(191)#191
     + 795 x(192)#192 + 282 x(193)#193 + 763 x(194)#194 + 705 x(195)#195
     + x(196)#196 + 307 x(197)#197 + 527 x(198)#198 + 99 x(199)#199
     + 654 x(200)#200 + 592 x(201)#201 + 936 x(202)#202 + 161 x(203)#203
     + 332 x(204)#204 + 684 x(205)#205 + 457 x(206)#206 + 376 x(207)#207
     + 322 x(208)#208 + 878 x(209)#209 + 544 x(210)#210 + 753 x(211)#211
     + 383 x(212)#212 + 349 x(213)#213 + 845 x(214)#214 + 73 x(215)#215
     + 793 x(216)#216 + 708 x(217)#217 + 58 x(218)#218 + 87 x(219)#219
     + 169 x(220)#220 + 869 x(221)#221 + 575 x(222)#222 + 919 x(223)#223
     + 295 x(224)#224 + 607 x(225)#225 + 218 x(226)#226 + 617 x(227)#227
     + 45 x(228)#228 + 383 x(229)#229 + 929 x(230)#230 + 841 x(231)#231
     + 837 x(232)#232 + 576 x(233)#233 + 287 x(234)#234 + 740 x(235)#235
     + 625 x(236)#236 + 82 x(237)#237 + 832 x(238)#238 + 695 x(239)#239
     + 198 x(240)#240 + 748 x(241)#241 + 205 x(242)#242 + 872 x(243)#243
     + 223 x(244)#244 + 578 x(245)#245 + 998 x(246)#246 + 841 x(247)#247
     + 746 x(248)#248 + 180 x(249)#249 <= 94220
 c3: 347 x(0)#0 + 112 x(1)#1 + 509 x(2)#2 + 724 x(3)#3 + 753 x(4)#4
     + 447 x(5)#5 + 472 x(6)#6 + 389 x(7)#7 + 180 x(8)#8 + 436 x(9)#9
     + 991 x(10)#10 + 652 x(11)#11 + 913 x(12)#12 + 177 x(13)#13 + 982 x(14)#14
     + 184 x(15)#15 + 672 x(16)#16 + 329 x(17)#17 + 546 x(18)#18 + 80 x(19)#19
     + 259 x(20)#20 + 998 x(21)#21 + 737 x(22)#22 + 401 x(23)#23 + 986 x(24)#24
     + 549 x(25)#25 + 713 x(26)#26 + 548 x(27)#27 + 922 x(28)#28 + 751 x(29)#29
     + 857 x(30)#30 + 761 x(31)#31 + 930 x(32)#32 + 182 x(33)#33 + 195 x(34)#34
     + 534 x(35)#35 + 963 x(36)#36 + 460 x(37)#37 + 539 x(38)#38 + 37 x(39)#39
     + 762 x(40)#40 + 603 x(41)#41 + 96 x(42)#42 + 569 x(43)#43 + 799 x(44)#44
     + 707 x(45)#45 + 296 x(46)#46 + 647 x(47)#47 + 378 x(48)#48 + 639 x(49)#49
     + 169 x(50)#50 + 861 x(51)#51 + 523 x(52)#52 + 830 x(53)#53 + 483 x(54)#54
     + 307 x(55)#55 + 462 x(56)#56 + 579 x(57)#57 + 15 x(58)#58 + 283 x(59)#59
     + 281 x(60)#60 + 795 x(61)#61 + 349 x(62)#62 + 129 x(63)#63 + 549 x(64)#64
     + 674 x(65)#65 + 888 x(66)#66 + 739 x(67)#67 + 557 x(68)#68 + 973 x(69)#69
     + 907 x(70)#70 + 16 x(71)#71 + 379 x(72)#72 + 724 x(73)#73 + 496 x(74)#74
     + 728 x(75)#75 + 131 x(76)#76 + 816 x(77)#77 + 20 x(78)#78 + 95 x(79)#79
     + 838 x(80)#80 + 14 x(81)#81 + 908 x(82)#82 + 584 x(83)#83 + 470 x(84)#84
     + 214 x(85)#85 + 14 x(86)#86 + 995 x(87)#87 + 890 x(88)#88 + 151 x(89)#89
     + 7 x(90)#90 + 783 x(91)#91 + 425 x(92)#92 + 750 x(93)#93 + 712 x(94)#94
     + 326 x(95)#95 + 22 x(96)#96 + 435 x(97)#97 + 831 x(98)#98 + 755 x(99)#99
     + 272 x(100)#100 + 554 x(101)#101 + 550 x(102)#102 + 684 x(103)#103
     + 518 x(104)#104 + 810 x(105)#105 + 974 x(106)#106 + 303 x(107)#107
     + 605 x(108)#108 + 671 x(109)#109 + 122 x(110)#110 + 246 x(111)#111
     + 18 x(112)#112 + 271 x(113)#113 + 900 x(114)#114 + 923 x(115)#115
     + 798 x(116)#116 + 263 x(117)#117 + 168 x(118)#118 + 889 x(119)#119
     + 988 x(120)#120 + 859 x(121)#121 + 377 x(122)#122 + 560 x(123)#123
     + 699 x(124)#124 + 176 x(125)#125 + 927 x(126)#126 + 750 x(127)#127
     + 700 x(128)#128 + 714 x(129)#129 + 446 x(130)#130 + 974 x(131)#131
     + 67 x(132)#132 + 324 x(133)#133 + 173 x(134)#134 + 762 x(135)#135
     + 974 x(136)#136 + 803 x(137)#137 + 427 x(138)#138 + 608 x(139)#139
     + 910 x(140)#140 + 761 x(141)#141 + 370 x(142)#142 + 182 x(143)#143
     + 192 x(144)#144 + 322 x(145)#145 + 320 x(146)#146 + 220 x(147)#147
     + 962 x(148)#148 + 336 x(149)#149 + 49 x(150)#150 + 702 x(151)#151
     + 390 x(152)#152 + 463 x(153)#153 + 463 x(154)#154 + 30 x(155)#155
     + 600 x(156)#156 + 952 x(157)#157 + 245 x(158)#158 + 395 x(159)#159
     + 311 x(160)#160 + 390 x(161)#161 + 270 x(162)#162 + 996 x(163)#163
     + 358 x(164)#164 + 186 x(165)#165 + 744 x(166)#166 + 26 x(167)#167
     + 144 x(168)#168 + 815 x(169)#169 + 631 x(170)#170 + 233 x(171)#171
     + 885 x(172)#172 + 821 x(173)#173 + 491 x(174)#174 + 805 x(175)#175
     + 470 x(176)#176 + 318 x(177)#177 + 297 x(178)#178 + 332 x(179)#179
     + 338 x(180)#180 + 881 x(181)#181 + 723 x(182)#182 + 576 x(183)#183
     + 727 x(184)#184 + 426 x(185)#185 + 247 x(186)#186 + 656 x(187)#187
     + 847 x(188)#188 + 974 x(189)#189 + 408 x(190)#190 + 379 x(191)#191
     + 120 x(192)#192 + 47 x(193)#193 + 950 x(194)#194 + 396 x(195)#195
     + 249 x(196)#196 + 61 x(197)#197 + 958 x(198)#198 + 148 x(199)#199
     + 197 x(200)#200 + 359 x(201)#201 + 778 x(202)#202 + 211 x(203)#203
     + 362 x(204)#204 + 139 x(205)#205 + 246 x(206)#206 + 148 x(207)#207
     + 806 x(208)#208 + 739 x(209)#209 + 303 x(210)#210 + 859 x(211)#211
     + 990 x(212)#212 + 827 x(213)#213 + 52 x(214)#214 + 944 x(215)#215
     + 471 x(216)#216 + 76 x(217)#217 + 362 x(218)#218 + 112 x(219)#219
     + 848 x(220)#220 + 923 x(221)#221 + 193 x(222)#222 + 111 x(223)#223
     + 229 x(224)#224 + 902 x(225)#225 + 551 x(226)#226 + 264 x(227)#227
     + 533 x(228)#228 + 188 x(229)#229 + 848 x(230)#230 + 392 x(231)#231
     + 910 x(232)#232 + 346 x(233)#233 + 403 x(234)#234 + 86 x(235)#235
     + 557 x(236)#236 + 556 x(237)#237 + 659 x(238)#238 + 604 x(239)#239
     + 456 x(240)#240 + 306 x(241)#241 + 226 x(242)#242 + 74 x(243)#243
     + 439 x(244)#244 + 190 x(245)#245 + 397 x(246)#246 + 366 x(247)#247
     + 470 x(248)#248 + 910 x(249)#249 <= 95144
 c4: 783 x(0)#0 + 509 x(1)#1 + 164 x(2)#2 + 262 x(3)#3 + 103 x(4)#4
     + 432 x(5)#5 + 280 x(6)#6 + 107 x(7)#7 + 17 x(8)#8 + 127 x(9)#9
     + 688 x(10)#10 + 591 x(11)#11 + 102 x(12)#12 + 846 x(13)#13 + 362 x(14)#14
     + 624 x(15)#15 + 458 x(16)#16 + 842 x(17)#17 + 446 x(18)#18 + 696 x(19)#19
     + 249 x(20)#20 + 619 x(21)#21 + 210 x(22)#22 + 602 x(23)#23 + 297 x(24)#24
     + 759 x(25)#25 + 660 x(26)#26 + 768 x(27)#27 + 613 x(28)#28 + 762 x(29)#29
     + 36 x(30)#30 + 127 x(31)#31 + 903 x(32)#32 + 238 x(33)#33 + 649 x(34)#34
     + 776 x(35)#35 + 675 x(36)#36 + 468 x(37)#37 + 520 x(38)#38 + 981 x(39)#39
     + 404 x(40)#40 + 256 x(41)#41 + 420 x(42)#42 + 79 x(43)#43 + 511 x(44)#44
     + 726 x(45)#45 + 473 x(46)#46 + 210 x(47)#47 + 241 x(48)#48 + 975 x(49)#49
     + 926 x(50)#50 + 197 x(51)#51 + 801 x(52)#52 + 538 x(53)#53 + 237 x(54)#54
     + 147 x(55)#55 + 397 x(56)#56 + 675 x(57)#57 + 548 x(58)#58 + 612 x(59)#59
     + 358 x(60)#60 + 643 x(61)#61 + 162 x(62)#62 + 560 x(63)#63 + 458 x(64)#64
     + 133 x(65)#65 + 241 x(66)#66 + 264 x(67)#67 + 941 x(68)#68 + 244 x(69)#69
     + 733 x(70)#70 + 244 x(71)#71 + 647 x(72)#72 + 133 x(73)#73 + 352 x(74)#74
     + 244 x(75)#75 + 60 x(76)#76 + 608 x(77)#77 + 699 x(78)#78 + 520 x(79)#79
     + 230 x(80)#80 + 189 x(81)#81 + 44 x(82)#82 + 558 x(83)#83 + 595 x(84)#84
     + 297 x(85)#85 + 474 x(86)#86 + 630 x(87)#87 + 54 x(88)#88 + 558 x(89)#89
     + 458 x(90)#90 + 87 x(91)#91 + 245 x(92)#92 + 347 x(93)#93 + 71 x(94)#94
     + 440 x(95)#95 + 368 x(96)#96 + 768 x(97)#97 + 635 x(98)#98 + 78 x(99)#99
     + 197 x(100)#100 + 608 x(101)#101 + 311 x(102)#102 + 17 x(103)#103
     + 99 x(104)#104 + 748 x(105)#105 + 564 x(106)#106 + 693 x(107)#107
     + 997 x(108)#108 + 124 x(109)#109 + 872 x(110)#110 + 904 x(111)#111
     + 482 x(112)#112 + 164 x(113)#113 + 376 x(114)#114 + 216 x(115)#115
     + 174 x(116)#116 + 424 x(117)#117 + 1000 x(118)#118 + 139 x(119)#119
     + 907 x(120)#120 + 352 x(121)#121 + 195 x(122)#122 + 115 x(123)#123
     + 693 x(124)#124 + 105 x(125)#125 + 131 x(126)#126 + 472 x(127)#127
     + 896 x(128)#128 + 929 x(129)#129 + 983 x(130)#130 + 587 x(131)#131
     + 234 x(132)#132 + 1000 x(133)#133 + 951 x(134)#134 + 123 x(135)#135
     + 224 x(136)#136 + 767 x(137)#137 + 825 x(138)#138 + 890 x(139)#139
     + 369 x(140)#140 + 569 x(141)#141 + 825 x(142)#142 + 581 x(143)#143
     + 237 x(144)#144 + 324 x(145)#145 + 114 x(146)#146 + 470 x(147)#147
     + 347 x(148)#148 + 39 x(149)#149 + 127 x(150)#150 + 929 x(151)#151
     + 13 x(152)#152 + 512 x(153)#153 + 24 x(154)#154 + 400 x(155)#155
     + 308 x(156)#156 + 741 x(157)#157 + 710 x(158)#158 + 455 x(159)#159
     + 955 x(160)#160 + 142 x(161)#161 + 589 x(162)#162 + 711 x(163)#163
     + 109 x(164)#164 + 756 x(165)#165 + 652 x(166)#166 + 251 x(167)#167
     + 133 x(168)#168 + 132 x(169)#169 + 589 x(170)#170 + 780 x(171)#171
     + 953 x(172)#172 + 529 x(173)#173 + 764 x(174)#174 + 468 x(175)#175
     + 78 x(176)#176 + 765 x(177)#177 + 210 x(178)#178 + 629 x(179)#179
     + 186 x(180)#180 + 390 x(181)#181 + 775 x(182)#182 + 424 x(183)#183
     + 235 x(184)#184 + 936 x(185)#185 + 594 x(186)#186 + 125 x(187)#187
     + 267 x(188)#188 + 902 x(189)#189 + 784 x(190)#190 + 893 x(191)#191
     + 568 x(192)#192 + 912 x(193)#193 + 749 x(194)#194 + 920 x(195)#195
     + 909 x(196)#196 + 268 x(197)#197 + 22 x(198)#198 + 560 x(199)#199
     + 515 x(200)#200 + 764 x(201)#201 + 306 x(202)#202 + 858 x(203)#203
     + 21 x(204)#204 + 251 x(205)#205 + 435 x(206)#206 + 424 x(207)#207
     + 6 x(208)#208 + 399 x(209)#209 + 769 x(210)#210 + 559 x(211)#211
     + 258 x(212)#212 + 548 x(213)#213 + 473 x(214)#214 + 985 x(215)#215
     + 927 x(216)#216 + 263 x(217)#217 + 80 x(218)#218 + 866 x(219)#219
     + 242 x(220)#220 + 366 x(221)#221 + 938 x(222)#222 + 691 x(223)#223
     + 945 x(224)#224 + 952 x(225)#225 + 144 x(226)#226 + 705 x(227)#227
     + 684 x(228)#228 + 55 x(229)#229 + 669 x(230)#230 + 842 x(231)#231
     + 778 x(232)#232 + 255 x(233)#233 + 807 x(234)#234 + 173 x(235)#235
     + 876 x(236)#236 + 38 x(237)#237 + 422 x(238)#238 + 398 x(239)#239
     + 132 x(240)#240 + 274 x(241)#241 + 350 x(242)#242 + 140 x(243)#243
     + 629 x(244)#244 + 715 x(245)#245 + 516 x(246)#246 + 67 x(247)#247
     + 247 x(248)#248 + 109 x(249)#249 <= 88617
 c5: 274 x(0)#0 + 144 x(1)#1 + 168 x(2)#2 + 499 x(3)#3 + 986 x(4)#4
     + 688 x(5)#5 + 100 x(6)#6 + 484 x(7)#7 + 213 x(8)#8 + 871 x(9)#9
     + 280 x(10)#10 + 231 x(11)#11 + 113 x(12)#12 + 522 x(13)#13 + 137 x(14)#14
     + 710 x(15)#15 + 148 x(16)#16 + 324 x(17)#17 + 552 x(18)#18 + 556 x(19)#19
     + 379 x(20)#20 + 816 x(21)#21 + 682 x(22)#22 + 485 x(23)#23 + 968 x(24)#24
     + 571 x(25)#25 + 392 x(26)#26 + 450 x(27)#27 + 39 x(28)#28 + 135 x(29)#29
     + 236 x(30)#30 + 65 x(31)#31 + 496 x(32)#32 + 334 x(33)#33 + 942 x(34)#34
     + 263 x(35)#35 + 122 x(36)#36 + 357 x(37)#37 + 769 x(38)#38 + 173 x(39)#39
     + 780 x(40)#40 + 477 x(41)#41 + 41 x(42)#42 + 267 x(43)#43 + 874 x(44)#44
     + 264 x(45)#45 + 993 x(46)#46 + 975 x(47)#47 + 841 x(48)#48 + 391 x(49)#49
     + 646 x(50)#50 + 827 x(51)#51 + 267 x(52)#52 + 270 x(53)#53 + 62 x(54)#54
     + 570 x(55)#55 + 561 x(56)#56 + 300 x(57)#57 + 142 x(58)#58 + 600 x(59)#59
     + 253 x(60)#60 + 212 x(61)#61 + 117 x(62)#62 + 701 x(63)#63 + 682 x(64)#64
     + 61 x(65)#65 + 28 x(66)#66 + 512 x(67)#67 + 377 x(68)#68 + 105 x(69)#69
     + 730 x(70)#70 + 427 x(71)#71 + 197 x(72)#72 + 896 x(73)#73 + 41 x(74)#74
     + 458 x(75)#75 + 81 x(76)#76 + 826 x(77)#77 + 858 x(78)#78 + 107 x(79)#79
     + 551 x(80)#80 + 543 x(81)#81 + 953 x(82)#82 + 4 x(83)#83 + 119 x(84)#84
     + 447 x(85)#85 + 792 x(86)#86 + 271 x(87)#87 + 825 x(88)#88 + 632 x(89)#89
     + 733 x(90)#90 + 679 x(91)#91 + 667 x(92)#92 + 98 x(93)#93 + 227 x(94)#94
     + 327 x(95)#95 + 761 x(96)#96 + 500 x(97)#97 + 617 x(98)#98 + 623 x(99)#99
     + 552 x(100)#100 + 741 x(101)#101 + 477 x(102)#102 + 398 x(103)#103
     + 664 x(104)#104 + 290 x(105)#105 + 150 x(106)#106 + 998 x(107)#107
     + 165 x(108)#108 + 907 x(109)#109 + 355 x(110)#110 + 138 x(111)#111
     + 700 x(112)#112 + 499 x(113)#113 + 295 x(114)#114 + 760 x(115)#115
     + 574 x(116)#116 + 275 x(117)#117 + 738 x(118)#118 + 614 x(119)#119
     + 302 x(120)#120 + 582 x(121)#121 + 750 x(122)#122 + 22 x(123)#123
     + 402 x(124)#124 + 154 x(125)#125 + 246 x(126)#126 + 929 x(127)#127
     + 116 x(128)#128 + 380 x(129)#129 + 166 x(130)#130 + 172 x(131)#131
     + 285 x(132)#132 + 8 x(133)#133 + 314 x(134)#134 + 910 x(135)#135
     + 142 x(136)#136 + 371 x(137)#137 + 737 x(138)#138 + 133 x(139)#139
     + 630 x(140)#140 + 136 x(141)#141 + 526 x(142)#142 + 308 x(143)#143
     + 866 x(144)#144 + 228 x(145)#145 + 529 x(146)#146 + 965 x(147)#147
     + 272 x(148)#148 + 547 x(149)#149 + 714 x(150)#150 + 61 x(151)#151
     + 298 x(152)#152 + 487 x(153)#153 + 345 x(154)#154 + 860 x(155)#155
     + 347 x(156)#156 + 980 x(157)#157 + 37 x(158)#158 + 769 x(159)#159
     + 515 x(160)#160 + 212 x(161)#161 + 627 x(162)#162 + 256 x(163)#163
     + 58 x(164)#164 + 283 x(165)#165 + 499 x(166)#166 + 67 x(167)#167
     + 278 x(168)#168 + 329 x(169)#169 + 665 x(170)#170 + 9 x(171)#171
     + 52 x(172)#172 + 547 x(173)#173 + 288 x(174)#174 + 368 x(175)#175
     + 312 x(176)#176 + 17 x(177)#177 + 471 x(178)#178 + 780 x(179)#179
     + 229 x(180)#180 + 758 x(181)#181 + 113 x(182)#182 + 53 x(183)#183
     + 572 x(184)#184 + 2 x(185)#185 + 861 x(186)#186 + 946 x(187)#187
     + 765 x(188)#188 + 807 x(189)#189 + 810 x(190)#190 + 88 x(191)#191
     + 254 x(192)#192 + 756 x(193)#193 + 983 x(194)#194 + 97 x(195)#195
     + 654 x(196)#196 + 877 x(197)#197 + 862 x(198)#198 + 180 x(199)#199
     + 639 x(200)#200 + 215 x(201)#201 + 295 x(202)#202 + 592 x(203)#203
     + 79 x(204)#204 + 804 x(205)#205 + 676 x(206)#206 + 280 x(207)#207
     + 294 x(208)#208 + 403 x(209)#209 + 968 x(210)#210 + 725 x(211)#211
     + 534 x(212)#212 + 37 x(213)#213 + 974 x(214)#214 + 775 x(215)#215
     + 268 x(216)#216 + 263 x(217)#217 + 211 x(218)#218 + 697 x(219)#219
     + 456 x(220)#220 + 35 x(221)#221 + 954 x(222)#222 + 567 x(223)#223
     + 245 x(224)#224 + 397 x(225)#225 + 716 x(226)#226 + 48 x(227)#227
     + 929 x(228)#228 + 270 x(229)#229 + 884 x(230)#230 + 539 x(231)#231
     + 20 x(232)#232 + 90 x(233)#233 + 555 x(234)#234 + 443 x(235)#235
     + 432 x(236)#236 + 42 x(237)#237 + 368 x(238)#238 + 979 x(239)#239
     + 453 x(240)#240 + 777 x(241)#241 + 901 x(242)#242 + 448 x(243)#243
     + 809 x(244)#244 + 447 x(245)#245 + 986 x(246)#246 + 385 x(247)#247
     + 58 x(248)#248 + 263 x(249)#249 <= 85276
Bounds
 0 <= x(0)#0 <= 1
 0 <= x(1)#1 <= 1
 0 <= x(2)#2 <= 1
 0 <= x(3)#3 <= 1
 0 <= x(4)#4 <= 1
 0 <= x(5)#5 <= 1
 0 <= x(6)#6 <= 1
 0 <= x(7)#7 <= 1
 0 <= x(8)#8 <= 1
 0 <= x(9)#9 <= 1
 0 <= x(10)#10 <= 1
 0 <= x(11)#11 <= 1
 0 <= x(12)#12 <= 1
 0 <= x(13)#13 <= 1
 0 <= x(14)#14 <= 1
 0 <= x(15)#15 <= 1
 0 <= x(16)#16 <= 1
 0 <= x(17)#17 <= 1
 0 <= x(18)#18 <= 1
 0 <= x(19)#19 <= 1
 0 <= x(20)#20 <= 1
 0 <= x(21)#21 <= 1
 0 <= x(22)#22 <= 1
 0 <= x(23)#23 <= 1
 0 <= x(24)#24 <= 1
 0 <= x(25)#25 <= 1
 0 <= x(26)#26 <= 1
 0 <= x(27)#27 <= 1
 0 <= x(28)#28 <= 1
 0 <= x(29)#29 <= 1
 0 <= x(30)#30 <= 1
 0 <= x(31)#31 <= 1
 0 <= x(32)#32 <= 1
 0 <= x(33)#33 <= 1
 0 <= x(34)#34 <= 1
 0 <= x(35)#35 <= 1
 0 <= x(36)#36 <= 1
 0 <= x(37)#37 <= 1
 0 <= x(38)#38 <= 1
 0 <= x(39)#39 <= 1
 0 <= x(40)#40 <= 1
 0 <= x(41)#41 <= 1
 0 <= x(42)#42 <= 1
 0 <= x(43)#43 <= 1
 0 <= x(44)#44 <= 1
 0 <= x(45)#45 <= 1
 0 <= x(46)#46 <= 1
 0 <= x(47)#47 <= 1
 0 <= x(48)#48 <= 1
 0 <= x(49)#49 <= 1
 0 <= x(50)#50 <= 1
 0 <= x(51)#51 <= 1
 0 <= x(52)#52 <= 1
 0 <= x(53)#53 <= 1
 0 <= x(54)#54 <= 1
 0 <= x(55)#55 <= 1
 0 <= x(56)#56 <= 1
 0 <= x(57)#57 <= 1
 0 <= x(58)#58 <= 1
 0 <= x(59)#59 <= 1
 0 <= x(60)#60 <= 1
 0 <= x(61)#61 <= 1
 0 <= x(62)#62 <= 1
 0 <= x(63)#63 <= 1
 0 <= x(64)#64 <= 1
 0 <= x(65)#65 <= 1
 0 <= x(66)#66 <= 1
 0 <= x(67)#67 <= 1
 0 <= x(68)#68 <= 1
 0 <= x(69)#69 <= 1
 0 <= x(70)#70 <= 1
 0 <= x(71)#71 <= 1
 0 <= x(72)#72 <= 1
 0 <= x(73)#73 <= 1
 0 <= x(74)#74 <= 1
 0 <= x(75)#75 <= 1
 0 <= x(76)#76 <= 1
 0 <= x(77)#77 <= 1
 0 <= x(78)#78 <= 1
 0 <= x(79)#79 <= 1
 0 <= x(80)#80 <= 1
 0 <= x(81)#81 <= 1
 0 <= x(82)#82 <= 1
 0 <= x(83)#83 <= 1
 0 <= x(84)#84 <= 1
 0 <= x(85)#85 <= 1
 0 <= x(86)#86 <= 1
 0 <= x(87)#87 <= 1
 0 <= x(88)#88 <= 1
 0 <= x(89)#89 <= 1
 0 <= x(90)#90 <= 1
 0 <= x(91)#91 <= 1
 0 <= x(92)#92 <= 1
 0 <= x(93)#93 <= 1
 0 <= x(94)#94 <= 1
 0 <= x(95)#95 <= 1
 0 <= x(96)#96 <= 1
 0 <= x(97)#97 <= 1
 0 <= x(98)#98 <= 1
 0 <= x(99)#99 <= 1
 0 <= x(100)#100 <= 1
 0 <= x(101)#101 <= 1
 0 <= x(102)#102 <= 1
 0 <= x(103)#103 <= 1
 0 <= x(104)#104 <= 1
 0 <= x(105)#105 <= 1
 0 <= x(106)#106 <= 1
 0 <= x(107)#107 <= 1
 0 <= x(108)#108 <= 1
 0 <= x(109)#109 <= 1
 0 <= x(110)#110 <= 1
 0 <= x(111)#111 <= 1
 0 <= x(112)#112 <= 1
 0 <= x(113)#113 <= 1
 0 <= x(114)#114 <= 1
 0 <= x(115)#115 <= 1
 0 <= x(116)#116 <= 1
 0 <= x(117)#117 <= 1
 0 <= x(118)#118 <= 1
 0 <= x(119)#119 <= 1
 0 <= x(120)#120 <= 1
 0 <= x(121)#121 <= 1
 0 <= x(122)#122 <= 1
 0 <= x(123)#123 <= 1
 0 <= x(124)#124 <= 1
 0 <= x(125)#125 <= 1
 0 <= x(126)#126 <= 1
 0 <= x(127)#127 <= 1
 0 <= x(128)#128 <= 1
 0 <= x(129)#129 <= 1
 0 <= x(130)#130 <= 1
 0 <= x(131)#131 <= 1
 0 <= x(132)#132 <= 1
 0 <= x(133)#133 <= 1
 0 <= x(134)#134 <= 1
 0 <= x(135)#135 <= 1
 0 <= x(136)#136 <= 1
 0 <= x(137)#137 <= 1
 0 <= x(138)#138 <= 1
 0 <= x(139)#139 <= 1
 0 <= x(140)#140 <= 1
 0 <= x(141)#141 <= 1
 0 <= x(142)#142 <= 1
 0 <= x(143)#143 <= 1
 0 <= x(144)#144 <= 1
 0 <= x(145)#145 <= 1
 0 <= x(146)#146 <= 1
 0 <= x(147)#147 <= 1
 0 <= x(148)#148 <= 1
 0 <= x(149)#149 <= 1
 0 <= x(150)#150 <= 1
 0 <= x(151)#151 <= 1
 0 <= x(152)#152 <= 1
 0 <= x(153)#153 <= 1
 0 <= x(154)#154 <= 1
 0 <= x(155)#155 <= 1
 0 <= x(156)#156 <= 1
 0 <= x(157)#157 <= 1
 0 <= x(158)#158 <= 1
 0 <= x(159)#159 <= 1
 0 <= x(160)#160 <= 1
 0 <= x(161)#161 <= 1
 0 <= x(162)#162 <= 1
 0 <= x(163)#163 <= 1
 0 <= x(164)#164 <= 1
 0 <= x(165)#165 <= 1
 0 <= x(166)#166 <= 1
 0 <= x(167)#167 <= 1
 0 <= x(168)#168 <= 1
 0 <= x(169)#169 <= 1
 0 <= x(170)#170 <= 1
 0 <= x(171)#171 <= 1
 0 <= x(172)#172 <= 1
 0 <= x(173)#173 <= 1
 0 <= x(174)#174 <= 1
 0 <= x(175)#175 <= 1
 0 <= x(176)#176 <= 1
 0 <= x(177)#177 <= 1
 0 <= x(178)#178 <= 1
 0 <= x(179)#179 <= 1
 0 <= x(180)#180 <= 1
 0 <= x(181)#181 <= 1
 0 <= x(182)#182 <= 1
 0 <= x(183)#183 <= 1
 0 <= x(184)#184 <= 1
 0 <= x(185)#185 <= 1
 0 <= x(186)#186 <= 1
 0 <= x(187)#187 <= 1
 0 <= x(188)#188 <= 1
 0 <= x(189)#189 <= 1
 0 <= x(190)#190 <= 1
 0 <= x(191)#191 <= 1
 0 <= x(192)#192 <= 1
 0 <= x(193)#193 <= 1
 0 <= x(194)#194 <= 1
 0 <= x(195)#195 <= 1
 0 <= x(196)#196 <= 1
 0 <= x(197)#197 <= 1
 0 <= x(198)#198 <= 1
 0 <= x(199)#199 <= 1
 0 <= x(200)#200 <= 1
 0 <= x(201)#201 <= 1
 0 <= x(202)#202 <= 1
 0 <= x(203)#203 <= 1
 0 <= x(204)#204 <= 1
 0 <= x(205)#205 <= 1
 0 <= x(206)#206 <= 1
 0 <= x(207)#207 <= 1
 0 <= x(208)#208 <= 1
 0 <= x(209)#209 <= 1
 0 <= x(210)#210 <= 1
 0 <= x(211)#211 <= 1
 0 <= x(212)#212 <= 1
 0 <= x(213)#213 <= 1
 0 <= x(214)#214 <= 1
 0 <= x(215)#215 <= 1
 0 <= x(216)#216 <= 1
 0 <= x(217)#217 <= 1
 0 <= x(218)#218 <= 1
 0 <= x(219)#219 <= 1
 0 <= x(220)#220 <= 1
 0 <= x(221)#221 <= 1
 0 <= x(222)#222 <= 1
 0 <= x(223)#223 <= 1
 0 <= x(224)#224 <= 1
 0 <= x(225)#225 <= 1
 0 <= x(226)#226 <= 1
 0 <= x(227)#227 <= 1
 0 <= x(228)#228 <= 1
 0 <= x(229)#229 <= 1
 0 <= x(230)#230 <= 1
 0 <= x(231)#231 <= 1
 0 <= x(232)#232 <= 1
 0 <= x(233)#233 <= 1
 0 <= x(234)#234 <= 1
 0 <= x(235)#235 <= 1
 0 <= x(236)#236 <= 1
 0 <= x(237)#237 <= 1
 0 <= x(238)#238 <= 1
 0 <= x(239)#239 <= 1
 0 <= x(240)#240 <= 1
 0 <= x(241)#241 <= 1
 0 <= x(242)#242 <= 1
 0 <= x(243)#243 <= 1
 0 <= x(244)#244 <= 1
 0 <= x(245)#245 <= 1
 0 <= x(246)#246 <= 1
 0 <= x(247)#247 <= 1
 0 <= x(248)#248 <= 1
 0 <= x(249)#249 <= 1
Generals
 x(0)#0  x(1)#1  x(2)#2  x(3)#3  x(4)#4  x(5)#5  x(6)#6  x(7)#7  x(8)#8 
 x(9)#9  x(10)#10  x(11)#11  x(12)#12  x(13)#13  x(14)#14  x(15)#15  x(16)#16 
 x(17)#17  x(18)#18  x(19)#19  x(20)#20  x(21)#21  x(22)#22  x(23)#23 
 x(24)#24  x(25)#25  x(26)#26  x(27)#27  x(28)#28  x(29)#29  x(30)#30 
 x(31)#31  x(32)#32  x(33)#33  x(34)#34  x(35)#35  x(36)#36  x(37)#37 
 x(38)#38  x(39)#39  x(40)#40  x(41)#41  x(42)#42  x(43)#43  x(44)#44 
 x(45)#45  x(46)#46  x(47)#47  x(48)#48  x(49)#49  x(50)#50  x(51)#51 
 x(52)#52  x(53)#53  x(54)#54  x(55)#55  x(56)#56  x(57)#57  x(58)#58 
 x(59)#59  x(60)#60  x(61)#61  x(62)#62  x(63)#63  x(64)#64  x(65)#65 
 x(66)#66  x(67)#67  x(68)#68  x(69)#69  x(70)#70  x(71)#71  x(72)#72 
 x(73)#73  x(74)#74  x(75)#75  x(76)#76  x(77)#77  x(78)#78  x(79)#79 
 x(80)#80  x(81)#81  x(82)#82  x(83)#83  x(84)#84  x(85)#85  x(86)#86 
 x(87)#87  x(88)#88  x(89)#89  x(90)#90  x(91)#91  x(92)#92  x(93)#93 
 x(94)#94  x(95)#95  x(96)#96  x(97)#97  x(98)#98  x(99)#99  x(100)#100 
 x(101)#101  x(102)#102  x(103)#103  x(104)#104  x(105)#105  x(106)#106 
 x(107)#107  x(108)#108  x(109)#109  x(110)#110  x(111)#111  x(112)#112 
 x(113)#113  x(114)#114  x(115)#115  x(116)#116  x(117)#117  x(118)#118 
 x(119)#119  x(120)#120  x(121)#121  x(122)#122  x(123)#123  x(124)#124 
 x(125)#125  x(126)#126  x(127)#127  x(128)#128  x(129)#129  x(130)#130 
 x(131)#131  x(132)#132  x(133)#133  x(134)#134  x(135)#135  x(136)#136 
 x(137)#137  x(138)#138  x(139)#139  x(140)#140  x(141)#141  x(142)#142 
 x(143)#143  x(144)#144  x(145)#145  x(146)#146  x(147)#147  x(148)#148 
 x(149)#149  x(150)#150  x(151)#151  x(152)#152  x(153)#153  x(154)#154 
 x(155)#155  x(156)#156  x(157)#157  x(158)#158  x(159)#159  x(160)#160 
 x(161)#161  x(162)#162  x(163)#163  x(164)#164  x(165)#165  x(166)#166 
 x(167)#167  x(168)#168  x(169)#169  x(170)#170  x(171)#171  x(172)#172 
 x(173)#173  x(174)#174  x(175)#175  x(176)#176  x(177)#177  x(178)#178 
 x(179)#179  x(180)#180  x(181)#181  x(182)#182  x(183)#183  x(184)#184 
 x(185)#185  x(186)#186  x(187)#187  x(188)#188  x(189)#189  x(190)#190 
 x(191)#191  x(192)#192  x(193)#193  x(194)#194  x(195)#195  x(196)#196 
 x(197)#197  x(198)#198  x(199)#199  x(200)#200  x(201)#201  x(202)#202 
 x(203)#203  x(204)#204  x(205)#205  x(206)#206  x(207)#207  x(208)#208 
 x(209)#209  x(210)#210  x(211)#211  x(212)#212  x(213)#213  x(214)#214 
 x(215)#215  x(216)#216  x(217)#217  x(218)#218  x(219)#219  x(220)#220 
 x(221)#221  x(222)#222  x(223)#223  x(224)#224  x(225)#225  x(226)#226 
 x(227)#227  x(228)#228  x(229)#229  x(230)#230  x(231)#231  x(232)#232 
 x(233)#233  x(234)#234  x(235)#235  x(236)#236  x(237)#237  x(238)#238 
 x(239)#239  x(240)#240  x(241)#241  x(242)#242  x(243)#243  x(244)#244 
 x(245)#245  x(246)#246  x(247)#247  x(248)#248  x(249)#249 
End
